* #variable= 22 #constraint= 3 
+1 x1 -1 x12 +2 x2 -2 x13 +4 x3 -4 x14 +8 x4 -8 x15 +16 x5 -16 x16 +32 x6 -32 x17 +64 x7 -64 x18 +128 x8 -128 x19 +256 x9 -256 x20 +512 x10 -512 x21 +1024 x11 -1024 x22 = 0 ;
-1 x1 -1 x12 >= -1; 
+1 x1 +1 x12 >= 1; 
